\* Problem: Unknown *\

Maximize
 obj: + xp_0_0 + xp_0_1 + xp_0_2 + xp_0_3 + xp_0_4 + xp_1_0 + xp_1_1
 + xp_1_2 + xp_2_0 + xp_2_1 + xp_2_2 + xp_2_3 + xp_3_0 + xp_3_1 + xp_4_0
 + xp_5_0 + xp_5_1 + xp_6_0 + xp_6_1 + xp_7_0 + xp_8_0 + xp_8_1 + xp_9_0
 + xp_10_0 + xp_10_1 + xp_11_0 + xp_11_1 + xp_11_2 + xp_11_3 + xp_12_0
 + xp_13_0 + xp_13_1 + xp_14_0 + xp_14_1 + xp_15_0 + xp_16_0 + xp_17_0
 + xp_17_1 + xp_17_2 + xp_17_3 + xp_17_4 + xp_17_5 + xp_18_0 + xp_18_1
 + xp_18_2 + xp_18_3 + xp_19_0 + xp_19_1 + xp_19_2 + xp_19_3 + xp_20_0
 + xp_20_1 + xp_20_2 + xp_20_3 + xp_21_0 + xp_21_1 + xp_21_2 + xp_21_3
 + xp_21_4 + xp_22_0 + xp_22_1 + xp_22_2 + xp_22_3 + xp_23_0 + xp_23_1
 + xp_23_2

Subject To
 r_1: 0 xp_0_0 <= 26.2815479528884
 r_2: + xp_22_3 + xp_18_3 + xp_5_1 + xp_2_2 <= 26.1838588989845
 r_3: + xp_21_3 + xp_18_2 + xp_6_1 <= 26.9620253164557
 r_4: + xp_17_1 + xp_15_0 <= 27.3778920308483
 r_5: + xp_18_0 <= 25.8704453441296
 r_6: + xp_18_1 <= 26.6425279789335
 r_7: + xp_20_3 <= 26.2815479528884
 r_8: + xp_23_2 + xp_22_2 + xp_11_2 + xp_2_3 <= 26.1838588989845
 r_9: + xp_17_2 + xp_11_1 + xp_3_1 <= 26.9620253164557
 r_10: + xp_17_4 + xp_3_0 <= 27.3778920308483
 r_11: + xp_18_1 + xp_11_3 <= 25.8704453441296
 r_12: + xp_11_0 <= 26.6425279789335
 r_13: 0 xp_0_0 <= 27.941473259334
 r_14: + xp_21_1 + xp_14_0 + xp_0_2 <= 26.1838588989845
 r_15: + xp_21_0 + xp_19_1 <= 26.9620253164557
 r_16: + xp_22_1 + xp_0_4 + xp_0_3 + xp_0_1 <= 27.941473259334
 r_17: + xp_0_0 <= 25.8704453441296
 r_18: + xp_21_3 + xp_4_0 <= 26.2815479528884
 r_19: + xp_19_0 <= 26.2815479528884
 r_20: + xp_21_4 + xp_21_2 + xp_19_3 + xp_19_2 + xp_14_1
 <= 27.941473259334
 r_21: + xp_20_1 <= 26.1838588989845
 r_22: + xp_21_1 + xp_20_2 <= 26.9620253164557
 r_23: + xp_22_3 + xp_22_2 + xp_17_3 <= 27.941473259334
 r_24: + xp_23_2 + xp_21_4 <= 27.1553784860558
 r_25: 0 xp_0_0 <= 27.941473259334
 r_26: + xp_18_3 + xp_0_2 <= 25.8704453441296
 r_27: + xp_11_2 <= 26.1838588989845
 r_28: + xp_19_2 + xp_10_1 <= 26.1838588989845
 r_29: + xp_20_2 <= 26.9620253164557
 r_30: + xp_2_0 <= 26.9620253164557
 r_31: + xp_18_2 + xp_17_2 + xp_6_1 + xp_3_1 <= 27.1553784860558
 r_32: + xp_2_1 <= 27.941473259334
 r_33: + xp_11_1 + xp_2_2 <= 26.9620253164557
 r_34: + xp_19_1 + xp_2_3 <= 26.9620253164557
 r_35: 0 xp_0_0 <= 27.941473259334
 r_36: + xp_9_0 <= 27.941473259334
 r_37: + xp_13_1 + xp_8_1 <= 27.1553784860558
 r_38: + xp_1_1 + xp_0_4 <= 27.941473259334
 r_39: + xp_17_3 + xp_0_3 <= 27.3778920308483
 r_40: + xp_0_1 <= 25.8704453441296
 r_41: + xp_12_0 <= 27.1553784860558
 r_42: + xp_21_4 <= 27.1553784860558
 r_43: + xp_16_0 <= 27.1553784860558
 r_44: + xp_23_2 + xp_23_1 + xp_1_2 <= 27.1553784860558
 r_45: + xp_17_5 + xp_17_2 + xp_3_1 <= 27.3778920308483
 r_46: + xp_18_2 <= 25.8704453441296
 r_47: + xp_13_1 <= 27.941473259334
 r_48: + xp_13_0 <= 27.1553784860558
 r_49: 0 xp_0_0 <= 27.3778920308483
 r_50: + xp_0_4 <= 25.8704453441296
 r_51: + xp_8_1 + xp_1_1 <= 27.3778920308483
 r_52: + xp_8_0 + xp_1_2 <= 27.3778920308483
 r_53: + xp_1_0 <= 27.3778920308483
 r_54: + xp_0_3 <= 25.8704453441296
 r_55: 0 xp_0_0 <= 27.3778920308483
 r_56: 0 xp_0_0 <= 27.3778920308483
 r_57: + xp_22_1 <= 25.8704453441296
 r_58: + xp_17_3 + xp_5_0 <= 25.8704453441296
 r_59: + xp_22_0 <= 25.8704453441296
 r_60: + xp_23_1 + xp_17_5 + xp_6_0 <= 25.8704453441296
 r_61: + xp_23_0 <= 25.8704453441296
 r_62: + xp_17_0 <= 25.8704453441296
 r_63: + xp_22_3 + xp_17_1 + xp_11_3 + xp_6_1 + xp_5_1
 <= 25.8704453441296
 r_64: + xp_23_2 + xp_22_2 + xp_17_4 + xp_17_2 <= 25.8704453441296
 r_65: + xp_21_4 + xp_20_2 + xp_20_1 + xp_19_2 + xp_14_1 + xp_10_1
 + xp_2_1 <= 27.941473259334
 r_66: + xp_21_2 + xp_7_0 <= 27.941473259334
 r_67: + xp_20_3 + xp_19_3 + xp_10_0 <= 27.941473259334
 r_68: + xp_20_0 <= 27.941473259334

Bounds
 0 <= xp_0_0 <= 28.5698313818075
 0 <= xp_0_1 <= 11.427932552723
 0 <= xp_0_2 <= 5.7139662763615
 0 <= xp_0_3 <= 5.7139662763615
 0 <= xp_0_4 <= 5.7139662763615
 0 <= xp_1_0 <= 18.6758987854679
 0 <= xp_1_1 <= 7.24796623274489
 0 <= xp_1_2 <= 6.4809662545532
 0 <= xp_2_0 <= 23.5324329963649
 0 <= xp_2_1 <= 0.67656789091886
 0 <= xp_2_2 <= 5.7139662763615
 0 <= xp_2_3 <= 2.02970367275658
 0 <= xp_3_0 <= 22.855865105446
 0 <= xp_3_1 <= 5.7139662763615
 0 <= xp_4_0 <= 24.1152232727561
 0 <= xp_5_0 <= 19.2921786182049
 0 <= xp_5_1 <= 4.82304465455122
 0 <= xp_6_0 <= 17.3629607563844
 0 <= xp_6_1 <= 4.3407401890961
 0 <= xp_7_0 <= 20.7993800727521
 0 <= xp_8_0 <= 11.2135788218316
 0 <= xp_8_1 <= 7.47571921455439
 0 <= xp_9_0 <= 17.3328167272934
 0 <= xp_10_0 <= 13.8662533818347
 0 <= xp_10_1 <= 3.46656334545869
 0 <= xp_11_0 <= 21.944853178208
 0 <= xp_11_1 <= 11.427932552723
 0 <= xp_11_2 <= 16.2308869018465
 0 <= xp_11_3 <= 5.25846031274251
 0 <= xp_12_0 <= 16.2777757091104
 0 <= xp_13_0 <= 12.6604922181969
 0 <= xp_13_1 <= 3.16512305454924
 0 <= xp_14_0 <= 12.057611636378
 0 <= xp_14_1 <= 3.01440290909451
 0 <= xp_15_0 <= 14.9212944000178
 0 <= xp_16_0 <= 14.3184138181989
 0 <= xp_17_0 <= 25.5219389163672
 0 <= xp_17_1 <= 2.66607381092124
 0 <= xp_17_2 <= 2.66607381092124
 0 <= xp_17_3 <= 5.7139662763615
 0 <= xp_17_4 <= 2.66607381092124
 0 <= xp_17_5 <= 2.66607381092124
 0 <= xp_18_0 <= 21.7505897527443
 0 <= xp_18_1 <= 10.3226572000213
 0 <= xp_18_2 <= 2.3043454618299
 0 <= xp_18_3 <= 5.7139662763615
 0 <= xp_19_0 <= 27.2836918545601
 0 <= xp_19_1 <= 4.42782674911412
 0 <= xp_19_2 <= 2.21391337455706
 0 <= xp_19_3 <= 5.7139662763615
 0 <= xp_20_0 <= 26.9822515636507
 0 <= xp_20_1 <= 7.77715950546384
 0 <= xp_20_2 <= 2.06319322910233
 0 <= xp_20_3 <= 2.06319322910233
 0 <= xp_21_0 <= 24.587474014548
 0 <= xp_21_1 <= 7.44557518546344
 0 <= xp_21_2 <= 1.73160890910194
 0 <= xp_21_3 <= 1.73160890910194
 0 <= xp_21_4 <= 1.73160890910194
 0 <= xp_22_0 <= 30
 0 <= xp_22_1 <= 2.86033723638497
 0 <= xp_22_2 <= 1.43016861819249
 0 <= xp_22_3 <= 1.43016861819249
 0 <= xp_23_0 <= 30
 0 <= xp_23_1 <= 4.29050585457746
 0 <= xp_23_2 <= 1.43016861819249

End
